Route #1: 48 47 36 71 60 70 20 37 5
Route #2: 73 1 43 41 42 64 22 62 68
Route #3: 72 10 31 25 55 18 50 32
Route #4: 38 65 66 59 14 19
Route #5: 2 28 61 69 21 74 30
Route #6: 6 33 63 23 56 24 49 16
Route #7: 75 4 45 29 15 57 27
Route #8: 26 12 58 11 53 35 7
Route #9: 51 44 9 39 40 3 17
Route #10: 67 34 52 13 54 8 46
Cost 858